Version identifier: 12.10.0.0 | 2019-11-26 | 843d4de
CPXPARAM_WorkMem                                 28672
Tried aggregator 2 times.
Aggregator did 75 substitutions.
Reduced MIP has 319 rows, 360 columns, and 1504 nonzeros.
Reduced MIP has 360 binaries, 0 generals, 0 SOSs, and 0 indicators.
Presolve time = 0,00 sec. (1,46 ticks)
Found incumbent of value 1612,000000 after 0,00 sec. (2,33 ticks)
Probing time = 0,00 sec. (0,73 ticks)
Tried aggregator 1 time.
Detecting symmetries...
MIP Presolve eliminated 76 rows and 0 columns.
MIP Presolve added 152 rows and 0 columns.
Reduced MIP has 395 rows, 360 columns, and 1580 nonzeros.
Reduced MIP has 360 binaries, 0 generals, 0 SOSs, and 0 indicators.
Presolve time = 0,00 sec. (2,05 ticks)
Probing time = 0,00 sec. (0,71 ticks)
Clique table members: 1099.
MIP emphasis: balance optimality and feasibility.
MIP search method: dynamic search.
Parallel mode: deterministic, using up to 16 threads.
Root relaxation solution time = 0,00 sec. (1,95 ticks)

        Nodes                                         Cuts/
   Node  Left     Objective  IInf  Best Integer    Best Bound    ItCnt     Gap

*     0+    0                         1612,0000        0,0000           100,00%
*     0+    0                          935,0000        0,0000           100,00%
      0     0      403,0000   280      935,0000      403,0000      148   56,90%
      0     0      406,3922   280      935,0000     Cuts: 149      273   56,54%
      0     0      408,9537   280      935,0000     Cuts: 157      302   56,26%
      0     0      409,8371   280      935,0000     Cuts: 198      318   56,17%
      0     0      410,0033   280      935,0000       Cuts: 6      322   56,15%
      0     0      410,0468   280      935,0000   ZeroHalf: 2      324   56,14%
      0     0      475,8273   280      935,0000     Cuts: 198      577   49,11%
      0     0      477,1714   280      935,0000      Cuts: 10      591   48,97%
      0     0      477,6698   280      935,0000      Fract: 3      641   48,91%
*     0+    0                          885,0000      477,6698            46,03%
      0     0      477,6845   280      885,0000      Cuts: 38      642   46,02%
      0     2      477,6845   337      885,0000      528,8133      642   40,25%
Elapsed time = 0,21 sec. (136,44 ticks, tree = 0,02 MB, solutions = 3)
*  3221+ 1731                          883,0000      718,5017            18,63%
   3486  1881      872,7241    55      883,0000      728,4714    91424   17,50%
*  6282+ 2885                          882,0000      754,1475            14,50%
   6480  2878      873,5540   145      882,0000      754,1475   181627   14,50%

Performing restart 1

Repeating presolve.
Tried aggregator 2 times.
MIP Presolve eliminated 30 rows and 22 columns.
MIP Presolve added 6 rows and 0 columns.
MIP Presolve modified 96 coefficients.
Aggregator did 6 substitutions.
Reduced MIP has 365 rows, 332 columns, and 1412 nonzeros.
Reduced MIP has 332 binaries, 0 generals, 0 SOSs, and 0 indicators.
Presolve time = 0,00 sec. (2,05 ticks)
Tried aggregator 1 time.
Reduced MIP has 365 rows, 332 columns, and 1412 nonzeros.
Reduced MIP has 332 binaries, 0 generals, 0 SOSs, and 0 indicators.
Presolve time = 0,00 sec. (1,18 ticks)
Represolve time = 0,02 sec. (10,50 ticks)
   6546     0      502,0992   260      882,0000      Cuts: 10   203516   14,26%
   6546     0      505,1087   260      882,0000      Cuts: 14   203571   14,26%
   6546     0      511,7240   260      882,0000      Cuts: 11   203699   14,26%
   6546     0      515,6576   260      882,0000       Cuts: 9   203733   14,26%
   6546     0      525,9984   260      882,0000      Cuts: 22   203839   14,26%
   6546     2      525,9984   330      882,0000      756,2339   203839   14,26%
   6559    13      654,5258   237      882,0000      756,2339   205701   14,26%
   7958   817      792,2515   240      882,0000      756,2339   267213   14,26%
   9261  1497      855,6716   158      882,0000      756,2339   323639   14,26%
  10604  2267        cutoff            882,0000      756,2339   413435   14,26%
  12167  2611      848,5534   201      882,0000      768,7709   493411   12,84%
  13689  2792      839,3683   201      882,0000      791,1471   591134   10,30%

Clique cuts applied:  65
Cover cuts applied:  713
Flow cuts applied:  24
Mixed integer rounding cuts applied:  46
Zero-half cuts applied:  9
Lift and project cuts applied:  2
Gomory fractional cuts applied:  27

Root node processing (before b&c):
  Real time             =    0,21 sec. (136,03 ticks)
Parallel b&c, 16 threads:
  Real time             =    3,56 sec. (2827,61 ticks)
  Sync time (average)   =    1,09 sec.
  Wait time (average)   =    0,00 sec.
                          ------------
Total (root+branch&cut) =    3,78 sec. (2963,63 ticks)
